NAME: data/d493.tsp/d493.tsp.tour
TYPE: TOUR
DIMENSION: 493
SOLUTION: 29683
TOUR_SECTION
0, 1
1, 3
3, 4
4, 5
5, 6
6, 10
10, 9
9, 8
8, 7
7, 11
11, 2
2, 18
18, 16
16, 17
17, 15
15, 14
14, 19
19, 13
13, 12
12, 52
52, 56
56, 55
55, 54
54, 53
53, 57
57, 58
58, 59
59, 63
63, 85
85, 84
84, 83
83, 62
62, 61
61, 60
60, 82
82, 79
79, 80
80, 77
77, 69
69, 67
67, 68
68, 66
66, 65
65, 81
81, 73
73, 72
72, 71
71, 70
70, 86
86, 115
115, 64
64, 127
127, 121
121, 125
125, 120
120, 124
124, 128
128, 131
131, 135
135, 136
136, 134
134, 130
130, 132
132, 133
133, 137
137, 139
139, 141
141, 143
143, 129
129, 126
126, 147
147, 146
146, 149
149, 145
145, 155
155, 159
159, 161
161, 166
166, 165
165, 158
158, 153
153, 151
151, 178
178, 184
184, 188
188, 185
185, 179
179, 173
173, 175
175, 193
193, 197
197, 196
196, 174
174, 180
180, 170
170, 172
172, 169
169, 162
162, 160
160, 189
189, 200
200, 154
154, 148
148, 209
209, 224
224, 215
215, 208
208, 234
234, 223
223, 265
265, 268
268, 300
300, 144
144, 122
122, 119
119, 114
114, 113
113, 109
109, 214
214, 229
229, 221
221, 235
235, 230
230, 222
222, 210
210, 207
207, 205
205, 211
211, 216
216, 212
212, 218
218, 220
220, 219
219, 206
206, 226
226, 232
232, 237
237, 244
244, 243
243, 242
242, 255
255, 241
241, 245
245, 246
246, 247
247, 248
248, 249
249, 250
250, 251
251, 252
252, 253
253, 264
264, 238
238, 258
258, 257
257, 256
256, 236
236, 231
231, 263
263, 262
262, 261
261, 260
260, 259
259, 227
227, 228
228, 233
233, 280
280, 279
279, 278
278, 289
289, 290
290, 291
291, 281
281, 282
282, 283
283, 284
284, 285
285, 286
286, 308
308, 313
313, 305
305, 288
288, 299
299, 302
302, 310
310, 318
318, 323
323, 330
330, 335
335, 343
343, 350
350, 354
354, 362
362, 366
366, 375
375, 379
379, 387
387, 409
409, 307
307, 295
295, 294
294, 293
293, 292
292, 419
419, 401
401, 402
402, 403
403, 404
404, 405
405, 406
406, 407
407, 412
412, 411
411, 386
386, 399
399, 382
382, 373
373, 359
359, 345
345, 332
332, 320
320, 326
326, 337
337, 352
352, 364
364, 377
377, 392
392, 385
385, 312
312, 311
311, 328
328, 321
321, 339
339, 355
355, 417
417, 416
416, 415
415, 414
414, 413
413, 418
418, 374
374, 358
358, 303
303, 298
298, 277
277, 270
270, 272
272, 266
266, 322
322, 309
309, 317
317, 329
329, 336
336, 342
342, 349
349, 356
356, 363
363, 367
367, 376
376, 380
380, 388
388, 395
395, 408
408, 423
423, 424
424, 431
431, 348
348, 357
357, 351
351, 340
340, 324
324, 316
316, 344
344, 325
325, 341
341, 333
333, 240
240, 369
369, 368
368, 389
389, 410
410, 396
396, 370
370, 430
430, 442
442, 397
397, 390
390, 381
381, 301
301, 287
287, 274
274, 273
273, 269
269, 319
319, 306
306, 314
314, 327
327, 331
331, 338
338, 346
346, 353
353, 360
360, 365
365, 372
372, 378
378, 383
383, 393
393, 400
400, 420
420, 425
425, 429
429, 488
488, 315
315, 485
485, 455
455, 454
454, 441
441, 453
453, 440
440, 439
439, 438
438, 437
437, 436
436, 435
435, 434
434, 433
433, 445
445, 444
444, 432
432, 443
443, 458
458, 459
459, 451
451, 450
450, 449
449, 448
448, 447
447, 446
446, 482
482, 426
426, 427
427, 489
489, 394
394, 452
452, 487
487, 486
486, 484
484, 483
483, 481
481, 478
478, 475
475, 296
296, 457
457, 460
460, 462
462, 465
465, 463
463, 464
464, 461
461, 275
275, 271
271, 217
217, 479
479, 477
477, 476
476, 201
201, 202
202, 347
347, 371
371, 361
361, 334
334, 480
480, 490
490, 491
491, 267
267, 254
254, 297
297, 276
276, 304
304, 203
203, 199
199, 191
191, 187
187, 190
190, 186
186, 194
194, 192
192, 198
198, 204
204, 176
176, 182
182, 195
195, 164
164, 157
157, 156
156, 150
150, 469
469, 468
468, 470
470, 467
467, 471
471, 183
183, 181
181, 171
171, 168
168, 474
474, 473
473, 472
472, 138
138, 456
456, 428
428, 421
421, 422
422, 391
391, 398
398, 384
384, 25
25, 24
24, 239
239, 167
167, 163
163, 152
152, 116
116, 118
118, 112
112, 111
111, 107
107, 104
104, 99
99, 94
94, 100
100, 97
97, 96
96, 98
98, 105
105, 101
101, 106
106, 142
142, 140
140, 123
123, 117
117, 110
110, 103
103, 102
102, 466
466, 20
20, 177
177, 213
213, 225
225, 108
108, 87
87, 88
88, 89
89, 492
492, 78
78, 95
95, 76
76, 75
75, 74
74, 91
91, 92
92, 90
90, 93
93, 21
21, 22
22, 23
23, 32
32, 33
33, 34
34, 35
35, 37
37, 36
36, 38
38, 39
39, 30
30, 29
29, 28
28, 27
27, 26
26, 31
31, 40
40, 41
41, 44
44, 46
46, 45
45, 42
42, 43
43, 47
47, 48
48, 49
49, 50
50, 51
EOF